;; Mutation-Based Equivalence Benchmark
;; Source:     AutomatArk / instance09184.smt2
;; Mutations:  intersect_min_len_5, range_expand_hi
;; Status:     sat
;;
;; Original regex vs mutated regex
;; Equivalence check: unsat ⟺ L(R1) = L(R2)

(set-info :smt-lib-version 2.6)
(set-info :category "mutation")
(set-info :status sat)
(set-logic QF_S)


;; R1: original
;; R2: mutated (intersect_min_len_5, range_expand_hi)
(assert
  (not
    (=
      (re.++ ((_ re.loop 0 8) (re.union (re.++ ((_ re.loop 4 4) (re.range "0" "9")) (re.union (re.++ (re.union (re.++ (str.to_re "0") (re.union (str.to_re "1") (str.to_re "3") (str.to_re "5") (str.to_re "7") (str.to_re "8"))) (re.++ (str.to_re "1") (re.union (str.to_re "0") (str.to_re "2")))) (re.union (re.++ (str.to_re "0") (re.range "1" "9")) (re.++ (re.union (str.to_re "1") (str.to_re "2")) (re.range "0" "9")) (re.++ (str.to_re "3") (re.union (str.to_re "0") (str.to_re "1"))))) (re.++ (re.union (re.++ (str.to_re "0") (re.union (str.to_re "1") (str.to_re "3") (str.to_re "4") (str.to_re "5") (str.to_re "6") (str.to_re "7") (str.to_re "8") (str.to_re "9"))) (re.++ (str.to_re "1") (re.union (str.to_re "0") (str.to_re "1") (str.to_re "2")))) (re.union (re.++ (str.to_re "0") (re.range "1" "9")) (re.++ (re.union (str.to_re "1") (str.to_re "2")) (re.range "0" "9")) (str.to_re "30"))) (re.++ (str.to_re "02") (re.union (re.++ (str.to_re "0") (re.range "1" "9")) (re.++ (str.to_re "1") (re.range "0" "9")) (re.++ (str.to_re "2") (re.range "0" "8")))))) (re.++ (re.union (re.++ ((_ re.loop 2 2) (re.range "0" "9")) (re.union (str.to_re "0") (str.to_re "2") (str.to_re "4") (str.to_re "6") (str.to_re "8")) (re.union (str.to_re "0") (str.to_re "4") (str.to_re "8"))) (re.++ ((_ re.loop 2 2) (re.range "0" "9")) (re.union (str.to_re "1") (str.to_re "3") (str.to_re "5") (str.to_re "7") (str.to_re "9")) (re.union (str.to_re "2") (str.to_re "6")))) (str.to_re "0229")))) (str.to_re "\u{a}"))
      (re.++ ((_ re.loop 0 8) (re.union (re.++ ((_ re.loop 4 4) (re.range "0" "9")) (re.union (re.++ (re.union (re.++ (str.to_re "0") (re.union (str.to_re "1") (str.to_re "3") (str.to_re "5") (str.to_re "7") (str.to_re "8"))) (re.++ (str.to_re "1") (re.union (str.to_re "0") (str.to_re "2")))) (re.union (re.++ (str.to_re "0") (re.range "1" "9")) (re.++ (re.union (str.to_re "1") (str.to_re "2")) (re.range "0" "9")) (re.++ (str.to_re "3") (re.union (str.to_re "0") (str.to_re "1"))))) (re.++ (re.union (re.++ (str.to_re "0") (re.union (str.to_re "1") (str.to_re "3") (str.to_re "4") (str.to_re "5") (str.to_re "6") (str.to_re "7") (str.to_re "8") (str.to_re "9"))) (re.++ (str.to_re "1") (re.union (str.to_re "0") (str.to_re "1") (str.to_re "2")))) (re.union (re.++ (str.to_re "0") (re.range "1" ":")) (re.++ (re.union (str.to_re "1") (str.to_re "2")) (re.range "0" "9")) (str.to_re "30"))) (re.++ (str.to_re "02") (re.union (re.++ (str.to_re "0") (re.range "1" "9")) (re.++ (str.to_re "1") (re.range "0" "9")) (re.++ (str.to_re "2") (re.range "0" "8")))))) (re.++ (re.inter (re.union (re.++ ((_ re.loop 2 2) (re.range "0" "9")) (re.union (str.to_re "0") (str.to_re "2") (str.to_re "4") (str.to_re "6") (str.to_re "8")) (re.union (str.to_re "0") (str.to_re "4") (str.to_re "8"))) (re.++ ((_ re.loop 2 2) (re.range "0" "9")) (re.union (str.to_re "1") (str.to_re "3") (str.to_re "5") (str.to_re "7") (str.to_re "9")) (re.union (str.to_re "2") (str.to_re "6")))) (re.++ ((_ re.loop 5 5) re.allchar) re.all)) (str.to_re "0229")))) (str.to_re "\u{a}")))))

(check-sat)
(exit)
